
******************************************************************************
This program contains Ipopt, a library for large-scale nonlinear optimization.
 Ipopt is released as open source code under the Eclipse Public License (EPL).
         For more information visit http://projects.coin-or.org/Ipopt
******************************************************************************

This is Ipopt version 3.12.6, running with linear solver ma57.

Number of nonzeros in equality constraint Jacobian...:        2
Number of nonzeros in inequality constraint Jacobian.:    59993
Number of nonzeros in Lagrangian Hessian.............:    30001

Total number of variables............................:    10001
                     variables with only lower bounds:        0
                variables with lower and upper bounds:    10000
                     variables with only upper bounds:        0
Total number of equality constraints.................:        1
Total number of inequality constraints...............:    19999
        inequality constraints with only lower bounds:        0
   inequality constraints with lower and upper bounds:    10000
        inequality constraints with only upper bounds:     9999

iter    objective    inf_pr   inf_du lg(mu)  ||d||  lg(rg) alpha_du alpha_pr  ls
   0  0.0000000e+00 1.00e+00 1.00e+00  -1.0 0.00e+00    -  0.00e+00 0.00e+00   0
   1  1.5232144e-02 8.05e-01 9.78e-01  -1.0 6.30e-01    -  1.68e-01 1.97e-01f  1
   2  8.1149112e-02 4.41e-01 1.10e+00  -1.0 5.41e-01   0.0 4.77e-01 4.41e-01f  1
   3  3.8487923e-01 0.00e+00 1.38e+00  -1.0 4.56e-01    -  4.30e-01 1.00e+00f  1
   4  4.9160351e-01 0.00e+00 1.39e+00  -1.0 6.33e-01    -  3.04e-01 5.50e-01f  1
   5  5.9838188e-01 0.00e+00 1.01e+00  -1.0 1.19e+00    -  1.28e-01 1.28e-01f  1
   6  4.9804776e-01 0.00e+00 9.78e+01  -1.0 7.26e-01   1.3 4.36e-02 3.39e-01f  1
   7  1.3376613e+00 1.84e-02 4.77e+01  -1.0 8.06e-01    -  1.99e-02 1.00e+00f  1
   8  9.0954217e-01 0.00e+00 3.59e+00  -1.0 4.13e-01   0.9 9.50e-01 1.00e+00f  1
   9  3.3269808e+00 0.00e+00 8.31e-01  -1.0 1.18e+00    -  6.29e-01 1.00e+00f  1
iter    objective    inf_pr   inf_du lg(mu)  ||d||  lg(rg) alpha_du alpha_pr  ls
  10  4.3173615e+00 2.16e-03 2.22e+00  -1.0 3.37e+00    -  6.49e-01 1.75e-01f  1
  11  2.0515869e+01 5.43e-04 6.71e-01  -1.0 8.18e+00    -  3.24e-01 4.39e-01f  1
  12  9.8796868e+01 3.42e-04 1.93e+00  -1.0 1.05e+01    -  8.42e-01 7.29e-01f  1
  13  3.2088465e+02 3.05e-05 7.60e-01  -1.0 1.93e+01    -  5.29e-01 5.85e-01f  1
  14  1.5275569e+02 0.00e+00 2.76e-02  -1.7 7.85e+00    -  1.00e+00 1.00e+00f  1
  15  4.5844507e+01 0.00e+00 2.50e-02  -2.5 7.90e+00    -  1.00e+00 1.00e+00f  1
  16  1.1947034e+01 0.00e+00 3.43e-02  -3.8 4.69e+00    -  1.00e+00 1.00e+00f  1
  17  3.3470129e+00 2.22e-16 1.62e-01  -3.8 2.30e+00    -  1.00e+00 1.00e+00f  1
  18  1.2941739e+00 0.00e+00 3.48e-02  -3.8 1.02e+00    -  1.00e+00 1.00e+00h  1
  19  8.4505994e-01 0.00e+00 3.10e-03  -3.8 3.22e-01    -  1.00e+00 1.00e+00h  1
iter    objective    inf_pr   inf_du lg(mu)  ||d||  lg(rg) alpha_du alpha_pr  ls
  20  7.9583915e-01 0.00e+00 3.18e-05  -3.8 3.94e-02    -  1.00e+00 1.00e+00h  1
  21  2.2731865e-01 0.00e+00 2.09e-02  -5.7 6.15e-01    -  9.34e-01 9.55e-01f  1
  22  2.2914860e-01 0.00e+00 6.07e-02  -5.7 5.42e-03    -  7.56e-01 6.65e-01h  1
  23  1.6148851e-01 0.00e+00 1.65e-01  -5.7 7.39e-01    -  8.51e-01 6.77e-01h  1
  24  1.6600967e-01 6.61e-08 9.72e-02  -5.7 1.12e-01    -  1.00e+00 7.19e-01h  1
  25  1.4703888e-01 0.00e+00 3.29e-02  -5.7 1.58e-01    -  8.54e-01 1.00e+00h  1
  26  1.3936261e-01 0.00e+00 3.53e-02  -5.7 9.63e-02    -  1.00e+00 6.95e-01h  1
  27  1.3352399e-01 0.00e+00 1.02e-02  -5.7 5.21e-02    -  1.00e+00 1.00e+00h  1
  28  1.3066584e-01 0.00e+00 1.04e-02  -5.7 2.59e-02    -  1.00e+00 1.00e+00h  1
  29  1.2925657e-01 0.00e+00 1.03e-02  -5.7 1.29e-02    -  1.00e+00 1.00e+00h  1
iter    objective    inf_pr   inf_du lg(mu)  ||d||  lg(rg) alpha_du alpha_pr  ls
  30  1.2868254e-01 0.00e+00 1.54e-01  -5.7 6.53e-03    -  1.00e+00 8.07e-01h  1
  31  1.2826964e-01 0.00e+00 9.69e-03  -5.7 3.80e-03    -  1.00e+00 1.00e+00f  1
  32  1.2810478e-01 0.00e+00 6.47e-01  -5.7 2.01e-03    -  1.00e+00 7.53e-01h  1
  33  1.2798090e-01 0.00e+00 9.02e-03  -5.7 1.14e-03    -  1.00e+00 1.00e+00f  1
  34  1.2792427e-01 0.00e+00 1.93e+00  -5.7 6.83e-04    -  1.00e+00 7.63e-01h  1
  35  1.2789042e-01 0.00e+00 7.40e-03  -5.7 3.12e-04    -  1.00e+00 1.00e+00f  1
  36  1.2786777e-01 0.00e+00 5.40e+00  -5.7 2.68e-04    -  1.00e+00 7.80e-01h  1
  37  1.2786105e-01 0.00e+00 4.04e-03  -5.7 6.20e-05    -  1.00e+00 1.00e+00f  1
  38  1.2785497e-01 0.00e+00 5.38e+01  -5.7 1.58e-04    -  1.00e+00 3.55e-01h  2
  39  1.2784744e-01 0.00e+00 1.25e-02  -5.7 6.94e-05    -  1.00e+00 1.00e+00h  1
iter    objective    inf_pr   inf_du lg(mu)  ||d||  lg(rg) alpha_du alpha_pr  ls
  40  1.2784739e-01 0.00e+00 4.30e-04  -5.7 3.14e-06   0.4 1.00e+00 1.00e+00h  1
  41  1.2784666e-01 0.00e+00 4.38e-04  -5.7 6.64e-06  -0.1 1.00e+00 1.00e+00h  1
  42  1.2784375e-01 0.00e+00 1.71e-03  -5.7 2.79e-05  -0.6 1.00e+00 1.00e+00h  1
  43  1.2784241e-01 0.00e+00 1.01e-04  -5.7 1.34e-05  -0.2 1.00e+00 1.00e+00h  1
  44  1.2783493e-01 0.00e+00 2.10e-03  -5.7 7.35e-05  -0.6 1.00e+00 1.00e+00h  1
  45  1.2772880e-01 0.00e+00 2.36e+03  -5.7 9.67e-04    -  6.83e-02 1.00e+00h  1
  46  1.2772783e-01 0.00e+00 5.44e-02  -5.7 3.04e-05    -  1.00e+00 1.00e+00h  1
  47  1.2755899e-01 0.00e+00 3.09e+01  -5.7 1.56e-03    -  2.65e-01 1.00e+00h  1
  48  1.2750170e-01 0.00e+00 3.31e-02  -5.7 5.29e-04    -  1.00e+00 1.00e+00h  1
  49  1.2437757e-01 0.00e+00 7.76e+00  -5.7 2.90e-02    -  5.11e-02 1.00e+00h  1
iter    objective    inf_pr   inf_du lg(mu)  ||d||  lg(rg) alpha_du alpha_pr  ls
  50  1.2420778e-01 2.22e-16 2.46e-02  -5.7 1.59e-03    -  1.00e+00 1.00e+00h  1
  51  1.1370959e-01 0.00e+00 1.16e-01  -5.7 1.00e-01    -  1.47e-01 1.00e+00h  1
  52  1.1413537e-01 0.00e+00 4.47e-04  -5.7 8.86e-03    -  1.00e+00 1.00e+00h  1
  53  1.1413828e-01 4.44e-16 4.43e-08  -5.7 6.52e-04    -  1.00e+00 1.00e+00h  1
  54  8.9725634e-02 0.00e+00 1.65e-01  -8.6 3.61e-01    -  1.53e-01 6.99e-01f  1
  55  8.8738618e-02 1.21e-07 4.13e-02  -8.6 1.96e-01    -  7.48e-01 5.55e-02h  1
  56  8.8312814e-02 0.00e+00 6.80e-02  -8.6 5.73e-01    -  6.22e-01 3.01e-02h  1
  57  8.8280434e-02 1.16e-07 1.04e-01  -8.6 6.41e-02    -  6.71e-01 2.27e-02h  1
  58  8.6932833e-02 2.09e-07 3.68e+00  -8.6 6.28e-02  -1.1 1.36e-03 9.67e-01h  1
  59  8.6403970e-02 1.27e-07 2.01e+00  -8.6 2.91e-02    -  6.04e-02 7.35e-01h  1
iter    objective    inf_pr   inf_du lg(mu)  ||d||  lg(rg) alpha_du alpha_pr  ls
  60  8.6256969e-02 0.00e+00 2.42e-02  -8.6 6.03e-03    -  1.00e+00 1.00e+00h  1
  61  8.5895159e-02 2.22e-16 5.75e-02  -8.6 5.85e+00    -  3.43e-02 2.54e-03h  1
  62  8.5700855e-02 0.00e+00 1.21e-02  -8.6 1.93e-02    -  1.00e+00 1.00e+00h  1
  63  8.5661218e-02 0.00e+00 6.78e-01  -8.6 1.27e-02    -  1.00e+00 4.01e-01h  1
  64  8.5583532e-02 0.00e+00 8.22e-03  -8.6 6.87e-03    -  1.00e+00 1.00e+00h  1
  65  8.5552655e-02 0.00e+00 5.20e-01  -8.6 1.60e-03    -  1.00e+00 7.95e-01h  1
  66  8.5529224e-02 0.00e+00 7.77e-03  -8.6 9.66e-04    -  1.00e+00 1.00e+00f  1
  67  8.5520750e-02 0.00e+00 2.35e+00  -8.6 4.86e-04    -  1.00e+00 7.19e-01h  1
  68  8.5513137e-02 4.44e-16 7.96e-03  -8.6 3.14e-04    -  1.00e+00 1.00e+00f  1
  69  8.5510320e-02 0.00e+00 8.53e+00  -8.6 1.66e-04    -  1.00e+00 7.01e-01h  1
iter    objective    inf_pr   inf_du lg(mu)  ||d||  lg(rg) alpha_du alpha_pr  ls
  70  8.5507453e-02 0.00e+00 1.18e-02  -8.6 1.18e-04    -  1.00e+00 1.00e+00f  1
  71  8.5506594e-02 0.00e+00 1.80e+02  -8.6 1.11e-04    -  1.00e+00 3.18e-01h  1
  72  8.5501922e-02 0.00e+00 5.77e-01  -8.6 1.93e-04    -  1.00e+00 1.00e+00f  1
  73  8.5504655e-02 0.00e+00 1.36e-01  -8.6 1.13e-04    -  1.00e+00 1.00e+00h  1
  74  8.5506566e-02 0.00e+00 4.34e+02  -8.6 1.22e-04    -  1.00e+00 6.45e-01h  1
  75  8.5501720e-02 0.00e+00 4.99e+00  -8.6 2.00e-04    -  1.00e+00 1.00e+00f  1
  76  8.5504519e-02 0.00e+00 1.12e+00  -8.6 1.15e-04    -  1.00e+00 1.00e+00h  1
  77  8.5506389e-02 0.00e+00 3.12e+03  -8.6 1.16e-04    -  1.00e+00 6.67e-01h  1
  78  8.5499938e-02 0.00e+00 1.06e+02  -8.6 2.66e-04    -  1.00e+00 1.00e+00f  1
  79  8.5503419e-02 0.00e+00 2.58e+01  -8.6 1.44e-04    -  1.00e+00 1.00e+00h  1
iter    objective    inf_pr   inf_du lg(mu)  ||d||  lg(rg) alpha_du alpha_pr  ls
  80  8.5505845e-02 0.00e+00 7.30e-01  -8.6 1.00e-04    -  1.00e+00 1.00e+00h  1
  81  8.5505916e-02 0.00e+00 7.20e+07  -8.6 1.73e-03    -  1.00e+00 1.68e-03h  1
  82  8.5505916e-02 4.31e-14 1.38e-02  -8.6 2.53e-09   6.7 1.00e+00 1.00e+00h  1
  83  8.5505916e-02 2.46e-13 1.51e-02  -8.6 8.30e-09   6.3 1.00e+00 1.00e+00h  1
